1 3 100 262586.90
1 3 200 256183.48
1 3 300 238024.56
2 3 100 317310.28
2 3 200 315361.92
2 3 300 326181.36
3 3 100 315050.20
3 3 200 329903.23
3 3 300 317492.87
4 3 100 291351.17
4 3 200 294777.38
4 3 300 300083.24
5 3 100 290666.32
5 3 200 273841.18
5 3 300 276557.38
